Name: naringenin
Synon: $:01M
Synon: $:06QTOF
Synon: $:00ms2:CID
Synon: $:03[M+H]+
Synon: $:04273
Synon: $:0545 eV
Synon: $:09LC
Synon: $:10ESI
Synon: $:11p
Formula: C15H12O5
MW: 272.0685
Comment: file=WEB346_S_1_pMS2.mzXML method=CID eV=45 Parent=273 ret. time (min)=13.83 scan=3474
Num Peaks: 56
77.854 0;
80.859 0;
82.186 0.1;
82.465 0;
90.343 0;
91.054 0.3;
93.232 0;
93.959 0.1;
94.056 0;
97.028 0.1;
100.138 0;
104.827 0;
107.049 0.3;
111.008 0.1;
119.049 2.7;
120.629 0.1;
121.029 0.7;
121.065 0.9;
122.532 0.1;
123.044 0.7;
123.145 0.1;
127.039 0.1;
136.762 0.1;
136.817 0.1;
142.759 0.1;
145.065 0.1;
146.037 0.1;
147.044 81.8;
151.039 1.3;
153.019 100;
155.034 0.1;
157.914 0.1;
161.06 0.1;
163.076 0.6;
167.034 0.1;
169.582 0;
171.029 0.5;
179.034 3.9;
186.35 0.1;
189.055 4.5;
205.087 0.1;
207.066 0.6;
213.056 0.1;
221.912 0.1;
227.071 0.1;
230.732 0.1;
231.066 3.7;
235.319 0.1;
237.056 0.1;
245.081 0.3;
255.066 1.2;
273.072 0.5;
274.076 0.1;
288.997 0.1;
295.129 0.1;
322.405 0.1;
Name: ponciretin
Synon: $:01M
Synon: $:06QTOF
Synon: $:00ms2:CID
Synon: $:03[M+H]+
Synon: $:04287
Synon: $:0545 eV
Synon: $:09LC
Synon: $:10ESI
Synon: $:11p
Formula: C16H14O5
MW: 286.0841
Comment: file=WEB346_S_1_pMS2.mzXML method=CID eV=45 Parent=287 ret. time (min)=15.12 scan=3803
Num Peaks: 68
76.123 0;
77.952 0;
78.615 0.1;
81.623 0;
82.109 0;
83.489 0;
86.28 0;
88.254 0;
90.022 0;
90.988 0;
92.769 0;
100.668 0.1;
102.343 0.1;
102.465 0;
103.055 0.1;
105.07 0.2;
106.393 0;
111.007 0;
111.045 0.1;
111.517 0.1;
111.848 0;
116.431 0;
118.042 0.2;
119.869 0;
121.065 0.6;
123.028 0;
123.044 0.1;
124.649 0.1;
125 0.1;
131.746 0;
133.065 4;
135.045 0.6;
135.081 3.7;
137.06 0.7;
146.037 0.2;
151.04 0.5;
153.019 80.1;
153.142 0.3;
153.381 0.1;
161.06 100;
171.029 0.7;
171.995 0.1;
175.076 0.2;
177.068 0.1;
177.092 0.5;
179.035 5.4;
186.993 0.1;
198.096 0.1;
201.055 0.1;
203.071 3.1;
206.371 0.1;
221.082 0.5;
222.97 0.2;
224.966 0.2;
227.072 0.1;
232.583 0.1;
236.684 0.1;
245.082 2.7;
245.856 0.1;
251.23 0;
258.705 0.1;
259.098 0.2;
259.455 0.1;
262.289 0.1;
263.866 0.1;
269.082 1;
269.227 0.1;
274.651 0;
Name: ponciretin
Synon: $:01M
Synon: $:06QTOF
Synon: $:00ms2:HCD
Synon: $:03[M+H]+
Synon: $:04284
Synon: $:0575 eV
Synon: $:09LC
Synon: $:10ESI
Synon: $:11p
Formula: C16H14O5
MW: 286.0841
Comment: file=WEB346_S_1_pMS2.mzXML method=HCD eV=75 Parent=284 ret. time (min)=15.12 scan=3804
Num Peaks: 127
50.717 0.1;
50.731 0.1;
60.313 0.1;
65.908 0.1;
67.654 0.1;
68.997 1.6;
69.034 0.3;
75.425 0;
76.549 0.1;
77.039 0.9;
77.543 0.1;
78.047 0.2;
79.018 0.8;
79.054 4.4;
81.034 0.4;
81.07 0.1;
83.013 1.1;
85.029 0.2;
89.039 0.9;
90.047 2.9;
91.054 1;
92.026 0.3;
92.997 0.2;
94.042 1.6;
94.748 0.1;
95.049 2.3;
97.029 3.4;
98.984 0.2;
102.047 0.3;
103.054 5.6;
104.062 0.1;
104.444 0.1;
105.045 2.6;
105.07 3.2;
106.042 0.1;
107.013 0.2;
107.049 0.2;
108.057 0.1;
109.029 0.1;
109.065 3.3;
111.008 1.1;
113.336 0.1;
115.054 0.3;
115.996 0.1;
117.034 0.1;
118.042 10.2;
119.049 0.1;
121.065 2.4;
122.285 0.1;
122.376 0.1;
123.044 0.6;
125.024 0.7;
125.849 0.1;
127.039 0.2;
127.34 0.1;
128.062 0.1;
128.907 0.1;
129.045 0.3;
129.07 0.1;
131.05 0.2;
132.057 0.2;
133.065 35.8;
135.008 0.2;
135.044 0.2;
135.081 0.3;
137.06 1.5;
137.429 0.1;
138.039 0.1;
139.992 0.1;
140.063 0.1;
141.07 0.1;
142.042 0.1;
143.495 0.1;
143.517 0.1;
144.058 0.2;
144.595 0.1;
145.065 0.1;
145.53 0.1;
146.037 0.2;
147.081 0.2;
151.039 0.1;
152.062 0.3;
153.019 100;
155.034 0.1;
156.057 0.1;
156.688 0.1;
157.066 0.1;
158.073 0.1;
158.737 0.1;
160.052 0.1;
161.06 9.9;
162.031 0.1;
165.07 0.1;
168.058 0.2;
169.065 0.3;
170.073 0.4;
171.029 0.5;
171.045 0.2;
171.081 0.3;
175.076 0.1;
176.855 0.1;
179.035 0.4;
180.058 0.2;
181.065 0.2;
182.073 0.1;
182.375 0.1;
184.053 0.2;
185.06 0.1;
195.081 0.2;
197.061 0.2;
198.068 0.2;
200.048 0.1;
203.071 0.2;
208.053 0.1;
220.715 0.1;
222.935 0.1;
225.067 0.1;
226.063 0.4;
237.056 0.2;
238.064 0.1;
248.004 0.1;
251.485 0.1;
253.051 0.1;
254.058 0.1;
265.173 0.1;
269.083 0.1;
292.474 0.1;
Name: eriodictyol
Synon: $:01M
Synon: $:06QTOF
Synon: $:00ms2:CID
Synon: $:03[M+H]+
Synon: $:04289
Synon: $:0545 eV
Synon: $:09LC
Synon: $:10ESI
Synon: $:11p
Formula: C15H12O6
MW: 288.0634
Comment: file=WEB346_S_2_pMS2.mzXML method=CID eV=45 Parent=289 ret. time (min)=13.21 scan=3314
Num Peaks: 64
77.098 0;
77.199 0;
77.205 0;
78.059 0;
78.267 0;
80.887 0;
81.782 0;
84.21 0;
89.039 0.3;
97.97 0;
101.93 0.1;
105.242 0;
107.05 0.1;
108.187 0.1;
109.174 0;
109.621 0.1;
110.961 0;
111.008 0.7;
111.044 0.1;
117.034 0.8;
117.658 0;
119.049 0.1;
123.045 0.6;
127.039 0.1;
135.045 1;
137.024 0.3;
137.06 0.6;
139.039 0.1;
143.719 0.1;
144.339 0;
145.029 5.2;
151.04 1.1;
153.019 31;
157.069 0;
159.044 0.3;
159.328 0;
159.556 0;
161.06 2.1;
163.04 100;
166.026 0.1;
167.035 0.2;
171.029 0.3;
179.035 20.5;
179.07 0.4;
185.06 0.1;
187.04 4.1;
188.539 0.1;
193.595 0;
201.055 0;
203.071 0.1;
205.05 3;
208.582 0.1;
213.523 0;
223.061 0.6;
229.05 0.8;
243.066 0.1;
247.061 3.3;
253.05 3.7;
261.077 0.1;
264.224 0.1;
271.061 17.8;
289.059 0.1;
289.074 0.3;
305.822 0;
Name: hesperetin
Synon: $:01M
Synon: $:06QTOF
Synon: $:00ms2:CID
Synon: $:03[M+H]+
Synon: $:04303
Synon: $:0545 eV
Synon: $:09LC
Synon: $:10ESI
Synon: $:11p
Formula: C16H14O6
MW: 302.079
Comment: file=WEB346_S_2_pMS2.mzXML method=CID eV=45 Parent=303 ret. time (min)=14 scan=3515
Num Peaks: 59
85.097 0;
85.77 0;
86.932 0;
89.039 0.2;
110.037 0.1;
111.008 0.1;
111.045 0.1;
114.5 0;
117.034 0.7;
118.908 0;
119.049 0.1;
121.829 0;
122.521 0;
123.045 0.1;
123.268 0;
125.06 0.2;
133.52 0;
134.037 0.1;
135.066 0.1;
137.06 1;
137.064 0;
137.227 0;
145.024 0.1;
145.029 2.5;
149.06 0.5;
151.04 0.9;
151.076 1.6;
153.019 21.2;
157.435 0;
159.045 0;
160.437 0;
162.032 0.1;
163.04 0.7;
164.627 0;
166.079 0;
171.029 0.3;
173.529 0;
174.846 0;
175.076 0.8;
177.055 100;
179.034 27.6;
187.529 0.1;
191.071 0.1;
193.087 0.2;
201.055 1.1;
215.071 0.1;
219.066 2.4;
237.077 0.3;
243.066 0.3;
253.05 0.1;
257.082 0.1;
257.28 0;
261.077 2.2;
267.066 0.6;
278.873 0.1;
285.077 9.3;
297.729 0.1;
308.437 0;
309.981 0;
Name: hesperetin
Synon: $:01M
Synon: $:06QTOF
Synon: $:00ms2:HCD
Synon: $:03[M+H]+
Synon: $:04303
Synon: $:0575 eV
Synon: $:09LC
Synon: $:10ESI
Synon: $:11p
Formula: C16H14O6
MW: 302.079
Comment: file=WEB346_S_2_pMS2.mzXML method=HCD eV=75 Parent=303 ret. time (min)=14 scan=3516
Num Peaks: 167
52.973 0.1;
54.774 0.1;
62.586 0.1;
63.444 0.1;
64.022 0.1;
64.158 0.1;
66.275 0.1;
66.976 0.1;
67.332 0.1;
68.495 0.1;
68.943 0.1;
68.997 1.7;
69.034 0.1;
72.913 0.1;
74.987 0.1;
75.159 0.1;
77.039 0.4;
78.047 1.6;
79.018 0.7;
79.054 0.3;
79.441 0.1;
79.702 0.1;
81.034 0.4;
81.07 0.1;
81.641 0.1;
82.597 0.1;
83.013 1.1;
84.837 0.1;
85.029 0.4;
85.483 0.1;
86.552 0.1;
86.614 0.1;
88.652 0.1;
89.039 29.7;
90.047 0.2;
91.052 0.1;
91.054 3;
92.11 0.1;
92.997 0.2;
93.034 1.6;
93.07 0.2;
94.042 0.9;
95.049 1;
97.029 3.5;
103.054 0.7;
103.759 0.1;
104.677 0.1;
105.034 0.6;
105.045 0.8;
106.042 2.4;
107.013 0.1;
107.049 0.3;
108.021 0.1;
108.371 0.1;
110.037 0.8;
111.008 1.6;
111.044 1.6;
111.241 0.1;
111.288 0.1;
115.055 0.5;
116.647 0.1;
116.711 0.1;
117.034 16.7;
117.07 0.2;
118.042 0.2;
119.05 0.5;
121.065 1.1;
122.037 1.5;
123.041 0.1;
123.044 3.3;
124.016 0.3;
124.052 0.3;
125.024 0.8;
125.06 0.8;
125.775 0.1;
127.04 0.2;
127.054 0.1;
128.062 0.2;
131.05 0.4;
132.058 0.2;
132.082 0.1;
134.037 10.2;
135.008 0.3;
135.045 8.2;
136.052 1.7;
137.024 0.6;
137.035 0.1;
137.06 2.8;
137.666 0.1;
139.055 0.1;
140.999 0.1;
141.07 0.4;
143.049 0.1;
144.058 0.2;
144.269 0.1;
145.029 2.9;
145.065 0.4;
146.036 0.1;
147.045 0.1;
148.053 0.2;
149.06 14.3;
150.032 0.2;
151.04 0.4;
151.076 0.2;
152.011 0.1;
152.063 0.1;
153.019 100;
155.034 0.2;
155.05 0.3;
157.066 0.2;
158.037 0.1;
159.045 0.2;
160.053 0.3;
161.024 0.2;
161.046 0.1;
162.032 1;
163.04 4.7;
163.549 0.1;
166.027 0.8;
168.057 0.4;
169.066 0.4;
171.03 0.7;
171.045 0.1;
172.053 0.2;
172.173 0.1;
173.06 0.3;
176.048 0.3;
177.055 4.3;
179.035 2.7;
183.045 0.2;
185.061 0.1;
186.032 0.2;
186.069 0.2;
187.04 0.8;
189.019 0.1;
196.052 0.2;
197.061 0.2;
200.048 0.2;
201.056 0.2;
204.042 0.1;
213.056 0.4;
214.063 0.2;
219.067 0.2;
224.047 0.1;
225.056 0.1;
228.042 0.1;
230.108 0.1;
231.995 0.1;
234.013 0.1;
234.126 0.1;
234.93 0.1;
241.051 0.3;
242.058 0.5;
250.769 0.1;
253.051 0.2;
253.419 0.1;
253.914 0.1;
269.046 0.3;
270.054 0.1;
271.061 0.3;
271.549 0.1;
280.879 0.1;
287.056 1.4;
305.418 0.1;
312.081 0.1;
321.146 0.1;
322.158 0.1;
Name: hesperetin
Synon: $:01M
Synon: $:06QTOF
Synon: $:00ms2:CID
Synon: $:03[M+H]+
Synon: $:04303
Synon: $:0545 eV
Synon: $:09LC
Synon: $:10ESI
Synon: $:11p
Formula: C16H14O6
MW: 302.079
Comment: file=WEB346_S_3_pMS2_303,317.mzXML method=CID eV=45 Parent=303 ret. time (min)=14.01 scan=3518
Num Peaks: 64
89.039 0.3;
92.577 0;
93.921 0;
96.976 0;
107.419 0;
110.036 0.1;
111.008 0.1;
111.044 0.1;
113.141 0;
114.57 0;
117.034 0.7;
119.049 0.1;
119.927 0;
119.95 0;
120.326 0;
121.065 0.1;
123.044 0.1;
125.06 0.2;
127.04 0;
131.438 0;
133.239 0;
134.037 0.1;
135.701 0;
137.06 1;
143.571 0;
145.029 2.7;
146.271 0;
149.06 0.5;
151.039 1;
151.076 2;
151.418 0;
151.428 0;
152.013 0;
153.019 22.2;
156.798 0;
162.032 0.1;
163.04 0.7;
171.029 0.2;
175.076 0.9;
177.05 2.8;
177.055 100;
179.034 27.9;
187.607 0;
191.071 0.1;
193.086 0.3;
201.055 1.2;
211.035 0;
215.072 0.1;
219.066 2.5;
219.333 0;
220.272 0;
227.323 0;
237.076 0.3;
243.066 0.5;
253.05 0.1;
257.081 0.1;
261.076 2.2;
267.066 0.8;
275.092 0.1;
285.076 9.8;
287.051 0.1;
300.679 0.1;
303.061 0.1;
303.086 0.2;
Name: Dimethyl-eriodictyol
Synon: $:01M
Synon: $:06QTOF
Synon: $:00ms2:CID
Synon: $:03[M+H]+
Synon: $:04317
Synon: $:0545 eV
Synon: $:09LC
Synon: $:10ESI
Synon: $:11p
Formula: C17H16O6
MW: 316.0947
Comment: file=WEB346_S_3_pMS2_303,317.mzXML method=CID eV=45 Parent=317 ret. time (min)=14.55 scan=3659
Num Peaks: 60
87.875 1.9;
89.531 2;
95.777 1.8;
98.588 1.9;
99.796 1.7;
111.567 1.7;
115.828 1.7;
117.154 1.7;
117.71 1.6;
120.837 1.6;
122.14 3.2;
130.789 1.6;
136.03 1.9;
144.148 1.8;
146.558 2.2;
151.075 3.1;
152.922 1.6;
153.019 79.9;
153.064 1.5;
155.07 2;
160.45 1.8;
161.368 1.7;
163.333 1.7;
164.209 2;
165.091 26;
171.029 1.9;
179.034 69.8;
179.427 1.7;
180.038 3.6;
180.781 2.1;
191.071 100;
192.075 4.1;
198.594 1.8;
204.46 1.7;
206.678 2.1;
210.595 1.7;
214.087 1.8;
232.474 1.7;
238.946 1.7;
239.199 1.7;
242.984 1.7;
258.533 1.9;
260.723 1.6;
272.104 1.9;
275.094 2.8;
276.482 1.9;
289.818 1.6;
293.457 1.6;
293.864 2;
295.554 2.1;
298.217 1.7;
299.092 18.4;
299.164 2.2;
299.275 5.4;
300.999 1.7;
301.066 2;
313.059 1.9;
317.454 1.9;
320.393 1.8;
324.312 1.7;
Name: homoeriodictyol
Synon: $:01M
Synon: $:06QTOF
Synon: $:00ms2:CID
Synon: $:03[M+H]+
Synon: $:04303
Synon: $:0545 eV
Synon: $:09LC
Synon: $:10ESI
Synon: $:11p
Formula: C16H14O6
MW: 302.079
Comment: file=WEB346_S_4_pMS2_303,317.mzXML method=CID eV=45 Parent=303 ret. time (min)=13.92 scan=3494
Num Peaks: 66
80.238 0;
81.273 0;
81.872 0;
82.816 0;
84.881 0.1;
86.515 0.1;
88.267 0.1;
89.039 0.1;
91.054 0.1;
93.441 0;
95.393 0;
99.111 0;
100.403 0;
100.988 0.1;
108.375 0.1;
110.682 0;
111.008 0.1;
111.044 0.2;
114.491 0.1;
117.034 0.9;
119.049 0.3;
120.073 0.1;
120.618 0.1;
123.044 0.1;
124.381 0;
124.423 0;
125.06 0.2;
128.135 0;
128.538 0.1;
128.542 0;
129.075 0.1;
129.133 0;
134.037 0.1;
137.06 0.9;
145.029 13.7;
148.654 0;
149.06 0.3;
151.04 1.4;
151.076 6.2;
153.019 57.9;
153.727 0;
154.321 0;
155.398 0.1;
162.031 0.1;
163.04 0.1;
171.029 0.8;
175.076 0.1;
177.055 100;
179.034 30.1;
182.67 0.1;
184.191 0.1;
193.087 0.1;
201.056 0.2;
219.066 1.5;
237.077 0.5;
253.051 0.1;
261.077 2.1;
275.093 0.1;
275.349 0.1;
285.077 3.8;
296.91 0.1;
303.06 0.2;
303.086 0.5;
306.489 0.1;
306.755 0;
312.134 0.1;
Name: Dimethyl-eriodictyol
Synon: $:01M
Synon: $:06QTOF
Synon: $:00ms2:CID
Synon: $:03[M+H]+
Synon: $:04317
Synon: $:0545 eV
Synon: $:09LC
Synon: $:10ESI
Synon: $:11p
Formula: C17H16O6
MW: 316.0947
Comment: file=WEB346_S_4_pMS2_303,317.mzXML method=CID eV=45 Parent=317 ret. time (min)=14.56 scan=3659
Num Peaks: 34
88.938 0.7;
101.902 0.8;
101.951 0.7;
103.798 0.8;
106.862 0.7;
107.576 0.7;
113.738 0.6;
129.312 0.7;
133.065 0.8;
139.076 1.7;
151.076 3.5;
153.019 69.9;
156.885 0.7;
165.092 20.3;
168.581 0.7;
171.029 1.3;
173.059 0.8;
179.034 66;
180.038 1.4;
191.071 100;
192.074 1.3;
203.854 0.8;
207.343 0.7;
232.045 0.7;
275.092 1.6;
277.203 0.7;
288.715 0.9;
288.729 0.7;
298.171 1.3;
299.092 16.8;
299.167 0.9;
299.275 1.9;
315.441 0.7;
315.998 0.7;
Name: unknown from homoeriodictyol standard
Synon: $:01M
Synon: $:06QTOF
Synon: $:00ms2:CID
Synon: $:03[M+H]+
Synon: $:04317
Synon: $:0545 eV
Synon: $:09LC
Synon: $:10ESI
Synon: $:11p
Formula: C17H16O6
MW: 316.0947
Comment: file=WEB346_S_4_pMS2_303,317.mzXML method=CID eV=45 Parent=317 ret. time (min)=15.21 scan=3823
Num Peaks: 48
85.649 0.6;
86.078 0.6;
105.419 0.6;
112.118 0.6;
114.968 0.6;
123.927 0.6;
137.06 1.3;
139.395 0.7;
143.691 0.5;
145.029 2.5;
149.06 1.3;
153.68 0.6;
155.07 1.6;
155.205 0.6;
165.055 1.5;
167.034 26.3;
167.278 0.7;
174.837 0.5;
176.61 0.5;
177.055 100;
178.059 4.4;
193.05 19.4;
201.055 1.7;
204.937 0.6;
206.652 0.6;
209.516 0.5;
212.173 0.6;
219.066 2.1;
220.748 0.7;
230.748 0.6;
231.614 0.6;
236.888 0.6;
245.079 1.4;
252.451 0.6;
252.869 0.5;
259.13 0.9;
266.934 0.7;
275.091 1.5;
276.045 1.1;
278.531 0.6;
280.264 0.6;
298.275 1.3;
299.092 8.1;
299.186 1;
299.275 1.1;
301.067 5.8;
302.07 1.3;
314.843 0.7;
Name: Dimethyl-eriodictyol
Synon: $:01M
Synon: $:06QTOF
Synon: $:00ms2:HCD
Synon: $:03[M+H]+
Synon: $:04317
Synon: $:0575 eV
Synon: $:09LC
Synon: $:10ESI
Synon: $:11p
Formula: C17H16O6
MW: 316.0947
Comment: file=WEB346_S_4_pMS2_303,317.mzXML method=HCD eV=75 Parent=317 ret. time (min)=14.56 scan=3660
Num Peaks: 84
51.571 0.9;
51.837 0.8;
52.776 0.7;
53.679 0.8;
54.482 0.8;
55.52 0.9;
55.785 0.7;
55.911 0.9;
56.133 0.8;
59.064 0.9;
59.286 0.8;
59.777 0.9;
61.793 0.8;
62.202 0.8;
68.997 1;
69.669 1.1;
71.539 0.8;
74.974 0.9;
79.054 2.2;
81.468 0.9;
81.51 0.9;
83.013 2.6;
89.039 1;
89.216 0.9;
91.046 0.9;
91.054 7.6;
91.434 0.9;
93.039 0.9;
95.049 2.2;
97.029 7;
101.492 0.9;
102.047 2.1;
103.055 3.9;
105.034 4.1;
105.045 2.3;
105.07 3.3;
107.049 1.7;
108.043 0.9;
108.057 0.9;
110.92 0.9;
118.041 3;
119.049 8.8;
119.31 0.8;
120.057 5;
123.045 1.8;
124.052 2.3;
125.023 1;
128.246 0.8;
131.049 0.9;
132.057 12.7;
133.029 7.2;
133.065 1.9;
133.796 0.8;
135.044 1.7;
135.081 1.6;
138.014 1;
139.076 2.5;
147.044 4.3;
148.052 16.7;
150.068 1.5;
151.076 2.5;
153.019 100;
154.022 1.1;
160.052 3.2;
161.024 0.9;
163.076 19.8;
176.047 1.7;
179.035 2.1;
191.071 4.4;
191.232 0.9;
194.423 0.9;
213.009 0.9;
227.057 1;
235.457 0.9;
242.794 0.9;
255.067 0.9;
255.122 0.9;
272.143 1;
285.271 0.9;
299.847 0.9;
300.099 0.9;
304.151 1;
304.932 0.9;
318.168 1;
Name: apigenin
Synon: $:01M
Synon: $:06QTOF
Synon: $:00ms2:CID
Synon: $:03[M+H]+
Synon: $:04271
Synon: $:0545 eV
Synon: $:09LC
Synon: $:10ESI
Synon: $:11p
Formula: C15H10O5
MW: 270.0528
Comment: file=WEB346_S_5_pMS2.mzXML method=CID eV=45 Parent=271 ret. time (min)=13.78 scan=3454
Num Peaks: 47
71.556 1.6;
73.226 1.6;
75.538 1.5;
76.329 1.7;
77.133 1.5;
79.757 1.4;
84.156 1.6;
84.345 1.4;
84.746 1.8;
84.899 1.4;
85.264 1.9;
89.886 1.5;
92.134 1.5;
109.641 1.5;
113.807 1.7;
118.407 1.5;
119.049 13.3;
121.028 5.1;
123.696 1.5;
136.977 1.5;
145.029 11.6;
153.019 100;
163.039 5.2;
166.361 1.7;
172.777 1.6;
173.773 1.6;
174.685 2;
174.923 2;
183.763 1.5;
185.061 2.1;
187.039 1.9;
187.581 1.7;
195.119 1.6;
199.423 1.8;
203.07 7;
209.599 1.7;
211.039 1.6;
216.357 1.6;
220.828 2;
225.055 10.6;
229.05 18.6;
242.059 2.7;
243.066 3.5;
244.427 1.7;
247.061 4.2;
271.042 2.2;
271.054 25.6;
Name: unknown from apigenion standard
Synon: $:01M
Synon: $:06QTOF
Synon: $:00ms2:CID
Synon: $:03[M+H]+
Synon: $:04271
Synon: $:0545 eV
Synon: $:09LC
Synon: $:10ESI
Synon: $:11p
NA
Comment: file=WEB346_S_5_pMS2.mzXML method=CID eV=45 Parent=271 ret. time (min)=15.05 scan=3778
Num Peaks: 45
70.201 0;
70.833 0;
71.464 0;
71.819 0;
71.956 0;
72.803 0;
73.083 0;
74.003 0;
74.037 0;
75.998 0;
76.105 0;
76.453 0;
76.809 0;
78.909 0;
79.156 0;
79.342 0;
81.115 0;
81.449 0;
85.397 0;
92.686 0;
93.692 0;
99.092 0;
99.438 0;
102.179 0.1;
104.165 0;
128.144 0.1;
135.159 0;
143.883 0;
152.467 0.1;
153.019 0.2;
154.712 0.1;
158.028 0.2;
170.531 0;
176.314 0.1;
214.09 0.6;
215.094 0.1;
225.545 0;
239.637 0.1;
240.233 0.1;
241.051 0.1;
242.058 100;
243.061 17.1;
250.622 0.1;
253.163 0;
280.287 0.1;
Name: unknown from apigenion standard
Synon: $:01M
Synon: $:06QTOF
Synon: $:00ms2:CID
Synon: $:03[M+H]+
Synon: $:04285
Synon: $:0545 eV
Synon: $:09LC
Synon: $:10ESI
Synon: $:11p
NA
Comment: file=WEB346_S_5_pMS2.mzXML method=CID eV=45 Parent=285 ret. time (min)=15.06 scan=3779
Num Peaks: 59
85.69 0.2;
90.729 0.2;
92.611 0.2;
94.593 0.2;
97.292 0.2;
97.862 0.2;
98.546 0.2;
99.169 0.2;
104.614 0.2;
110.322 0.2;
114.553 0.2;
115.08 0.2;
125 0.2;
131.895 0.2;
133.065 2.3;
135.044 0.4;
135.915 0.2;
139.008 0.3;
141 0.3;
141.959 1.2;
153.019 4.6;
153.024 0.3;
154.022 0.3;
157.023 0.1;
159.044 0.6;
173.017 0.2;
178.061 0.2;
178.687 0.2;
186.992 0.5;
189.055 0.2;
194.691 0.2;
195.071 1.8;
195.944 0.2;
198.034 0.3;
201.044 0.2;
209.585 0.2;
210.026 0.2;
222.97 1.4;
224.423 0.2;
225.055 0.4;
228.213 0.2;
232.188 0.2;
239.061 0.5;
239.071 0.7;
241.552 0.2;
242.049 0.3;
242.058 8.3;
243.067 1;
243.885 0.5;
249.34 0.2;
256.073 0.4;
257.045 0.3;
257.081 1;
257.906 0.2;
261.077 0.5;
267.124 0.2;
270.053 100;
271.056 7.2;
287.445 0.2;
Name: unknown from apigenion standard
Synon: $:01M
Synon: $:06QTOF
Synon: $:00ms2:HCD
Synon: $:03[M+H]+
Synon: $:04285
Synon: $:0575 eV
Synon: $:09LC
Synon: $:10ESI
Synon: $:11p
NA
Comment: file=WEB346_S_5_pMS2.mzXML method=HCD eV=75 Parent=285 ret. time (min)=15.06 scan=3780
Num Peaks: 113
53.043 0;
53.81 0;
56.029 0;
58.038 0;
59.331 0;
60.048 0;
60.953 0;
63.375 0;
67.248 0;
68.997 0.1;
72.263 0;
75.969 0;
76.678 0;
77.039 0.1;
79.054 0.2;
81.034 0;
83.101 0;
89.039 0.1;
90.047 0.4;
90.083 0;
91.05 0.1;
91.055 0.1;
92.026 0.1;
94.042 0;
95.049 0.1;
96.596 0;
97.029 0.1;
103.054 0.3;
105.045 0.2;
105.07 0.2;
105.693 0;
109.065 0;
109.633 0;
110.068 0;
111.008 0.1;
113.587 0;
113.964 0;
116.062 0.1;
118.042 0.5;
124.016 0.2;
125.024 0;
128.801 0;
129.019 0.1;
129.07 0;
132.962 0;
133.065 2.4;
134.068 0.1;
135.044 0.4;
135.055 0;
135.662 0;
136.016 0;
137.024 0;
138.506 0;
144.021 0;
144.057 0.1;
145.065 0.1;
146.234 0;
150.032 0.1;
152.011 0.1;
153.019 11;
154.022 0.5;
158.037 0.1;
158.074 0;
159.045 0.5;
162.301 0;
168.057 0.2;
169.065 0.1;
170.022 0.2;
171.029 0.3;
171.044 0.1;
172.053 0.1;
173.06 0;
177.001 0;
177.055 0.1;
183.081 0.1;
185.06 0.1;
186.068 0.1;
192.043 0.1;
196.052 0.1;
197.06 0.1;
200.048 0.1;
201.055 0.1;
203.035 0.1;
204.038 0;
206.369 0;
210.357 0;
213.055 0.7;
214.064 0.4;
216.043 0.1;
216.08 0;
218.016 0;
218.059 0;
219.516 0;
221.651 0;
224.047 0;
225.056 0.1;
226.417 0;
227.034 0;
239.071 0.1;
241.05 1.5;
242.058 100;
243.061 9.3;
245.638 0;
252.245 0;
257.045 0;
257.082 0.1;
264.557 0;
269.045 0.1;
270.053 9.4;
271.056 0.9;
278.382 0;
285.077 3.6;
286.08 0.4;
Name: luteolin
Synon: $:01M
Synon: $:06QTOF
Synon: $:00ms2:CID
Synon: $:03[M+H]+
Synon: $:04287
Synon: $:0545 eV
Synon: $:09LC
Synon: $:10ESI
Synon: $:11p
Formula: C15H10O6
MW: 286.0477
Comment: file=WEB346_S_6_pMS2.mzXML method=CID eV=45 Parent=287 ret. time (min)=13.22 scan=3314
Num Peaks: 61
77.978 1.3;
80.373 1.6;
80.375 1.3;
80.937 1.5;
89.587 1.5;
89.626 1.3;
93.241 1.5;
94.684 1.4;
95.104 1.7;
97.481 1.3;
97.551 1.4;
99.738 1.4;
100.231 1.5;
100.441 1.5;
101.322 1.6;
101.972 1.4;
106.493 1.4;
112.705 1.5;
115.619 1.4;
117.152 1.5;
123.661 1.4;
130.525 1.4;
132.51 1.5;
135.044 11.7;
136.203 1.4;
137.023 10.4;
137.791 1.5;
140.998 1.7;
143.88 1.4;
144.933 1.6;
145.065 1.5;
147.027 1.3;
151.792 1.5;
153.018 100;
154.021 5.1;
156.089 1.4;
161.024 11.5;
163.865 1.6;
169.031 1.7;
173.419 1.8;
174.87 1.4;
179.034 7.1;
196.628 1.8;
205.398 1.6;
219.065 5.4;
227.034 2.6;
227.229 1.6;
228.383 1.5;
231.065 3.3;
241.05 13.4;
242.053 4.4;
245.045 13.9;
257.046 3.3;
257.302 1.5;
258.048 25.5;
259.05 4.8;
259.06 4.9;
263.056 5.1;
269.046 7.8;
287.047 27.2;
289.291 1.5;
Name: Me-luteolin
Synon: $:01M
Synon: $:06QTOF
Synon: $:00ms2:CID
Synon: $:03[M+H]+
Synon: $:04301
Synon: $:0545 eV
Synon: $:09LC
Synon: $:10ESI
Synon: $:11p
Formula: C16H12O6
MW: 300.0634
Comment: file=WEB346_S_6_pMS2.mzXML method=CID eV=45 Parent=301 ret. time (min)=13.87 scan=3483
Num Peaks: 40
81.436 0.1;
81.438 0.1;
82.728 0.1;
84.436 0.1;
85.957 0.1;
87.378 0.1;
98.379 0.1;
108.934 0.1;
112.382 0.1;
121.504 0.1;
131.243 0.1;
133.236 0.1;
135.931 0.1;
137.188 0.1;
140.918 0.1;
153.019 0.2;
176.796 0.1;
180.409 0.1;
185.829 0.1;
199.308 0.1;
215.639 0.1;
215.812 0.1;
219.976 0.1;
220.427 0.1;
223.867 0.1;
245.048 0.1;
245.081 0.2;
255.158 0.2;
257.046 0.1;
258.052 0.4;
259.061 0.2;
259.872 0.1;
263.597 0.1;
273.077 0.7;
285.04 0.2;
286.048 100;
287.051 4.9;
295.934 0.1;
303.851 0.1;
320.33 0.1;
Name: Me-luteolin
Synon: $:01M
Synon: $:06QTOF
Synon: $:00ms2:HCD
Synon: $:03[M+H]+
Synon: $:04301
Synon: $:0575 eV
Synon: $:09LC
Synon: $:10ESI
Synon: $:11p
Formula: C16H12O6
MW: 300.0634
Comment: file=WEB346_S_6_pMS2.mzXML method=HCD eV=75 Parent=301 ret. time (min)=13.88 scan=3484
Num Peaks: 91
51.492 0.1;
52.168 0.1;
55.868 0.1;
55.924 0;
56.384 0.1;
56.414 0.1;
57.647 0.1;
61.883 0;
62.021 0;
64.768 0.1;
65.526 0.1;
76.092 0.1;
78.047 0.2;
89.039 0.1;
90.56 0.1;
91.945 0.1;
95.856 0.1;
101.183 0.1;
101.823 0.1;
102.245 0.1;
104.582 0.1;
105.034 0.2;
106.041 0.4;
108.021 0.3;
112.807 0;
113.408 0.1;
114.285 0.1;
118.042 0.1;
122.037 0.1;
124.016 0.5;
128.062 0.2;
131.049 0.1;
132.057 0.1;
134.037 0.2;
136.016 0.1;
137.023 0.1;
146.037 0.1;
149.06 0.2;
150.032 0.1;
152.011 0.2;
153.019 9.4;
153.536 0.1;
154.022 0.2;
155.05 0.1;
156.058 0.1;
160.052 0.1;
161.06 0.3;
162.239 0.1;
166.234 0.1;
170.021 0.2;
171.029 0.1;
172.222 0.1;
173.06 0.1;
174.032 0.1;
178.027 0.2;
179.707 0.1;
182.262 0.1;
184.052 0.6;
185.06 0.1;
187.039 0.2;
188.048 0.2;
196.054 0.1;
201.055 0.8;
202.063 0.2;
202.692 0.1;
203.035 0.4;
204.042 0.2;
205.05 0.2;
206.367 0.1;
211.04 0.1;
212.048 0.4;
213.055 0.7;
215.035 0.1;
216.042 0.2;
217.05 0.1;
225.173 0.1;
229.05 12.5;
230.056 0.6;
233.423 0.1;
234.053 0.1;
240.043 0.1;
241.05 0.2;
257.045 6.8;
258.053 100;
259.056 4.3;
266.193 0.1;
269.045 0.6;
285.04 0.1;
286.048 19.1;
287.051 1;
301.071 0.4;
Name: diosmetin
Synon: $:01M
Synon: $:06QTOF
Synon: $:00ms2:CID
Synon: $:03[M+H]+
Synon: $:04301
Synon: $:0545 eV
Synon: $:09LC
Synon: $:10ESI
Synon: $:11p
Formula: C15H10O6
MW: 286.0477
Comment: file=WEB346_S_7_pMS2.mzXML method=CID eV=45 Parent=301 ret. time (min)=13.88 scan=3486
Num Peaks: 47
81.06 0;
83.252 0;
84.186 0;
85.078 0;
86.467 0;
88.09 0;
88.673 0;
92.507 0;
96.677 0;
113.436 0;
118.585 0;
118.613 0;
123.556 0;
129.594 0;
137.333 0;
145.013 0;
148.461 0;
149.06 0;
153.019 0.2;
155.342 0;
164.665 0;
166.773 0;
180.277 0;
184.906 0;
194.187 0;
208.988 0;
213.339 0;
217.543 0;
228.836 0;
229.049 0.1;
231.066 0.1;
241.418 0;
245.082 0.1;
245.921 0;
252.192 0;
254.737 0;
256.036 0;
258.053 0.3;
259.062 0.2;
269.043 0;
273.077 0.3;
285.04 0.1;
286.048 100;
287.051 1.9;
301.05 0.2;
301.079 0.1;
302.074 0.1;
Name: unknown from diosmetin standard
Synon: $:01M
Synon: $:06QTOF
Synon: $:00ms2:CID
Synon: $:03[M+H]+
Synon: $:04315
Synon: $:0545 eV
Synon: $:09LC
Synon: $:10ESI
Synon: $:11p
NA
Comment: file=WEB346_S_7_pMS2.mzXML method=CID eV=45 Parent=315 ret. time (min)=16.6 scan=4175
Num Peaks: 53
85.855 0.7;
88.681 0.9;
88.865 0.8;
96.881 0.7;
120.389 0.8;
123.32 0.7;
124.292 0.8;
126.375 0.7;
127.869 0.7;
130.087 0.9;
132.433 0.7;
133.562 0.7;
138.557 0.7;
152.576 0.8;
154.166 0.7;
157.585 0.7;
161.647 0.8;
173.079 0.7;
173.128 0.8;
174.316 0.7;
175.226 0.9;
178.781 0.9;
181.102 0.9;
181.749 0.8;
187.112 100;
212.529 0.8;
215.125 0.8;
222.815 0.7;
226.066 1.9;
227.069 5.5;
227.144 3.3;
227.181 1.5;
228.071 1.7;
238.374 0.8;
255.159 1.2;
269.191 12.9;
269.268 1.4;
270.026 1.8;
273.075 1.2;
273.15 1.2;
273.8 1.4;
273.882 1.5;
273.905 0.8;
274.095 0.9;
281.885 0.9;
286.803 1.4;
287.722 0.8;
288.037 1.2;
291.837 0.9;
296.898 2.7;
297.169 1.3;
297.244 1.6;
314.907 1.3;
Name: chrysoeriol
Synon: $:01M
Synon: $:06QTOF
Synon: $:00ms2:CID
Synon: $:03[M+H]+
Synon: $:04301
Synon: $:0545 eV
Synon: $:09LC
Synon: $:10ESI
Synon: $:11p
Formula: C15H10O6
MW: 286.0477
Comment: file=WEB346_S_8_pMS2.mzXML method=CID eV=45 Parent=301 ret. time (min)=13.87 scan=3482
Num Peaks: 60
81.489 0;
81.702 0;
82.382 0;
83.463 0;
85.274 0;
85.799 0;
87.087 0;
87.211 0;
88.539 0;
89.44 0;
90.846 0;
93.807 0;
99.717 0;
102.771 0;
103.259 0;
114.309 0;
115.064 0;
118.743 0;
120.458 0;
120.468 0;
120.971 0;
126.544 0;
127.028 0;
127.887 0;
128.608 0;
132.465 0;
133.749 0;
135.49 0;
136.293 0;
137.671 0;
144.353 0;
147.906 0;
152.974 0;
153.019 0.3;
168.671 0;
176.793 0;
176.829 0;
180.43 0;
208.093 0;
218.498 0;
229.32 0;
231.066 0.1;
243.954 0;
245.081 0.1;
249.798 0;
252.734 0;
253.525 0;
255.066 0;
258.052 0.4;
259.061 0.3;
273.077 0.5;
285.04 0.1;
286.048 100;
286.757 0;
287.051 2.2;
301.051 0.1;
301.077 0.1;
302.073 0.1;
307.336 0;
311.92 0;
Name: P-coumaric acid
Synon: $:01M
Synon: $:06QTOF
Synon: $:00ms2:CID
Synon: $:03[M-H]-
Synon: $:04163
Synon: $:0530 eV
Synon: $:09LC
Synon: $:10ESI
Synon: $:11n
Formula: C9H8O3
MW: 164.0473
Comment: file=WEB346_S_9_nMS2_163,177.mzXML method=CID eV=30 Parent=163 ret. time (min)=11.17 scan=2852
Num Peaks: 42
50.008 0;
50.083 0;
51.177 0;
52.021 0;
53.094 0;
53.734 0;
53.829 0;
54.93 0;
56.28 0;
59.013 0;
59.072 0;
61.15 0;
62.817 0;
66.285 0;
70.203 0;
74.078 0;
79.543 0;
81.38 0;
85.454 0;
86.238 0;
89.87 0;
90.706 0;
93.856 0;
109.262 0;
110.506 0;
117.034 0;
118.042 0;
119.05 100;
122.287 0;
123.04 0;
124.771 0;
125.946 0;
131.249 0;
131.553 0;
146.722 0;
146.729 0;
159.742 0;
163.04 0.1;
167.749 0;
169.71 0;
183.201 0;
191.134 0;
Name: m-coumaric acid
Synon: $:01M
Synon: $:06QTOF
Synon: $:00ms2:CID
Synon: $:03[M-H]-
Synon: $:04163
Synon: $:0530 eV
Synon: $:09LC
Synon: $:10ESI
Synon: $:11n
Formula: C9H8O3
MW: 164.0473
Comment: file=WEB346_S_10_nMS2_163,177.mzXML method=CID eV=30 Parent=163 ret. time (min)=11.98 scan=3059
Num Peaks: 44
54.916 0;
55.984 0;
58.052 0;
58.949 0;
59.449 0;
61.787 0;
69.738 0;
73.563 0;
74.422 0;
74.705 0;
77.187 0;
77.447 0;
79.103 0;
82.313 0;
83.211 0;
83.773 0;
90.54 0;
91.356 0;
94.512 0;
101.292 0;
101.443 0;
106.55 0;
110.205 0;
117.79 0;
118.042 0;
119.05 100;
135.618 0;
137.508 0;
146.071 0;
149.067 0;
153.939 0;
157.765 0;
159.975 0;
161.522 0;
163.04 0.3;
163.338 0;
170.887 0;
172.475 0;
178.423 0;
179.399 0;
183.889 0;
184.568 0;
188.645 0;
197.564 0;
Name: o-coumaric acid
Synon: $:01M
Synon: $:06QTOF
Synon: $:00ms2:CID
Synon: $:03[M-H]-
Synon: $:04163
Synon: $:0530 eV
Synon: $:09LC
Synon: $:10ESI
Synon: $:11n
Formula: C9H8O3
MW: 164.0473
Comment: file=WEB346_S_11_nMS2_163,177.mzXML method=CID eV=30 Parent=163 ret. time (min)=12.5 scan=3194
Num Peaks: 61
51.1 0;
52.358 0;
53.184 0;
53.697 0;
55.102 0;
56.116 0;
56.118 0;
56.737 0;
59.113 0;
59.377 0;
65.167 0;
65.351 0;
65.895 0;
66.392 0;
67.352 0;
68.095 0;
70.172 0;
70.834 0;
75.586 0;
77.627 0;
78.799 0;
78.995 0;
81.79 0;
82.343 0;
84.409 0;
85.417 0;
88.654 0;
89.225 0;
90.332 0;
90.547 0;
91.043 0;
94.324 0;
94.848 0;
95.02 0;
96.252 0;
96.433 0;
96.61 0;
100.524 0;
103.084 0;
107.589 0;
110.56 0;
117.497 0;
118.042 0;
119.05 100;
119.054 3.3;
119.056 4.3;
129.721 0;
132.378 0;
135.045 0;
140.369 0;
140.878 0;
141.738 0;
145.308 0;
147.177 0;
160.625 0;
163.034 0;
163.04 0.2;
163.091 0;
167.407 0;
177.417 0;
193.239 0;
Name: caffeic acid
Synon: $:01M
Synon: $:06QTOF
Synon: $:00ms2:CID
Synon: $:03[M-H]-
Synon: $:04179
Synon: $:0530 eV
Synon: $:09LC
Synon: $:10ESI
Synon: $:11n
Formula: C9H8O4
MW: 180.0423
Comment: file=WEB346_S_12_nMS2_179,193.mzXML method=CID eV=30 Parent=179 ret. time (min)=7.37 scan=1880
Num Peaks: 47
52.043 0;
53.118 0;
58.304 0;
58.486 0;
59.84 0;
62.144 0;
66.846 0;
67.349 0;
71.297 0;
72.181 0;
72.567 0;
72.719 0;
72.889 0;
72.971 0;
73.664 0;
74.009 0;
77.823 0;
78.331 0;
78.709 0;
79.432 0;
81.719 0;
85.087 0;
86.8 0;
87.446 0;
88.147 0;
88.763 0;
88.774 0;
90.655 0;
93.028 0;
95.234 0;
100.728 0;
106.458 0;
107.897 0;
112.151 0;
133.03 0;
134.037 0;
135.045 100;
140.786 0;
151.012 0;
154.086 0;
155.065 0;
156.458 0;
158.017 0;
164.041 0;
178.428 0;
179.035 0.2;
191.723 0;
Name: caffeic acid
Synon: $:01M
Synon: $:06QTOF
Synon: $:00ms2:CID
Synon: $:03[M-H]-
Synon: $:04179
Synon: $:0530 eV
Synon: $:09LC
Synon: $:10ESI
Synon: $:11n
Formula: C9H8O4
MW: 180.0423
Comment: file=WEB346_S_12_nMS2_179,193.mzXML method=CID eV=30 Parent=179 ret. time (min)=9.73 scan=2483
Num Peaks: 63
50.767 0;
50.951 0;
51.067 0;
51.361 0;
53.161 0;
55.022 0;
56.163 0;
57.632 0;
58.99 0;
59.936 0;
61.67 0;
62.522 0;
65.369 0;
66.513 0;
67.58 0;
69.08 0;
69.667 0;
71.125 0;
72.067 0;
73.308 0;
74.789 0;
75.105 0;
75.849 0;
76.375 0;
78.536 0;
78.815 0;
83.762 0;
87.652 0;
88.876 0;
90.246 0;
92.579 0;
92.884 0;
94.234 0;
96.279 0;
100.901 0;
106.172 0;
109.742 0;
109.79 0;
110.403 0;
115.634 0;
116.154 0;
125.278 0;
128.357 0;
130.426 0;
131.486 0;
133.029 0;
134.033 0;
134.037 0;
135.045 100;
135.052 2.6;
144.503 0;
146.546 0;
146.795 0;
151.076 0;
152.891 0;
160.536 0;
161.355 0;
165.708 0;
177.701 0;
179.035 0.1;
184.073 0;
189.399 0;
190.04 0;
Name: ferulic acid
Synon: $:01M
Synon: $:06QTOF
Synon: $:00ms2:CID
Synon: $:03[M-H]-
Synon: $:04193
Synon: $:0530 eV
Synon: $:09LC
Synon: $:10ESI
Synon: $:11n
Formula: C10H10O4
MW: 194.0579
Comment: file=WEB346_S_13_nMS2_193,207.mzXML method=CID eV=30 Parent=193 ret. time (min)=11.7 scan=2960
Num Peaks: 60
51.566 0.1;
51.868 0.1;
52.547 0.1;
53.026 0.1;
53.671 0.1;
54.299 0.1;
55.515 0.1;
55.792 0.1;
56.606 0.1;
58.539 0.1;
59.829 0.1;
60.059 0.1;
65.584 0.1;
66.017 0.1;
67.785 0.1;
68.326 0.1;
69.358 0.1;
72.024 0.1;
73.734 0.1;
74.393 0.1;
78.139 0.1;
78.54 0.1;
79.704 0.1;
80.201 0.1;
80.35 0.1;
81.856 0.1;
83.215 0.1;
86.511 0.1;
88.315 0.1;
89.423 0.1;
91.989 0.1;
92.613 0.1;
97.605 0.1;
99.071 0.1;
99.596 0.1;
99.894 0.1;
99.928 0.1;
101.467 0.1;
102.483 0.1;
102.682 0.1;
102.934 0.3;
107.05 0.2;
110.065 0.1;
111.571 0.1;
113.874 0.1;
115.189 0.1;
119.617 0.1;
134.037 36.7;
137.277 0.1;
143.026 0.1;
145.731 0.1;
146.923 0.6;
149.061 100;
149.244 0.1;
149.514 0.1;
150.812 0.1;
151.48 0.1;
155.443 0.1;
178.027 61.8;
198.121 0.1;
Name: ferulic acid
Synon: $:01M
Synon: $:06QTOF
Synon: $:00ms2:CID
Synon: $:03[M-H]-
Synon: $:04193
Synon: $:0530 eV
Synon: $:09LC
Synon: $:10ESI
Synon: $:11n
Formula: C10H10O4
MW: 194.0579
Comment: file=WEB346_S_13_nMS2_193,207.mzXML method=CID eV=30 Parent=193 ret. time (min)=11.98 scan=3029
Num Peaks: 51
51.91 0.1;
52.059 0.1;
52.351 0.1;
52.446 0.1;
53.3 0.1;
56.187 0.1;
58.989 0.1;
60.146 0.1;
61.466 0.1;
61.514 0.1;
65.416 0.1;
65.556 0.1;
67.928 0.1;
75.396 0.1;
75.793 0.1;
77.036 0.1;
77.575 0.1;
79.449 0.1;
81.292 0.1;
89.986 0.1;
92.367 0.1;
97.898 0.1;
98.52 0.1;
101.062 0.1;
107.05 0.6;
108.054 0.1;
108.125 0.1;
108.825 0.1;
109.328 0.1;
111.692 0.1;
112.595 0.1;
117.035 0.7;
119.43 0.1;
120.922 0.1;
121.066 0.2;
121.626 0.1;
123.802 0.1;
133.202 0.1;
134.037 100;
141.914 0.1;
145.012 0.1;
146.834 0.1;
146.923 0.2;
149.061 63.4;
151.239 0.1;
167.693 0.1;
172.981 0.1;
175.04 0.2;
178.027 32.7;
193.05 0.1;
198.62 0.1;
Name: Iso-ferulic acid
Synon: $:01M
Synon: $:06QTOF
Synon: $:00ms2:CID
Synon: $:03[M-H]-
Synon: $:04193
Synon: $:0530 eV
Synon: $:09LC
Synon: $:10ESI
Synon: $:11n
Formula: C10H10O4
MW: 194.0579
Comment: file=WEB346_S_14_nMS2_193,207.mzXML method=CID eV=30 Parent=193 ret. time (min)=12.04 scan=3041
Num Peaks: 41
50.058 0;
50.419 0;
51.577 0;
52.218 0;
52.594 0;
53.228 0;
54.285 0;
56.86 0;
57.793 0;
57.882 0;
60.967 0;
61.46 0;
62.179 0;
65.884 0;
68.744 0;
73.872 0;
74.795 0;
75.347 0;
84.817 0;
85.321 0;
101.07 0;
104.004 0;
105.2 0;
107.05 0.4;
112.079 0;
115.261 0;
117.082 0;
117.415 0;
121.066 0.1;
129.981 0;
130.119 0;
134.037 100;
136.511 0;
149.061 7.9;
150.547 0;
155.31 0;
157.964 0;
168.536 0;
175.04 0.2;
178.027 8;
189.474 0.1;
Name: Dimethyl-caffeic acid
Synon: $:01M
Synon: $:06QTOF
Synon: $:00ms2:CID
Synon: $:03[M-H]-
Synon: $:04207
Synon: $:0530 eV
Synon: $:09LC
Synon: $:10ESI
Synon: $:11n
Formula: C11H12O4
MW: 208.0736
Comment: file=WEB346_S_14_nMS2_193,207.mzXML method=CID eV=30 Parent=207 ret. time (min)=14.74 scan=3720
Num Peaks: 15
109.029 7.5;
122.037 2;
127.87 1.5;
145.931 3;
150.032 11.4;
151.04 1.9;
162.983 12.1;
163.112 1.6;
163.847 2.3;
163.929 2.7;
179.107 100;
191.071 1.7;
192.079 11;
193.083 1.5;
207.102 14.6;
Name: kaempferol
Synon: $:01M
Synon: $:06QTOF
Synon: $:00ms2:CID
Synon: $:03[M+H]+
Synon: $:04287
Synon: $:0545 eV
Synon: $:09LC
Synon: $:10ESI
Synon: $:11p
Formula: C15H10O6
MW: 286.0477
Comment: file=WEB346_S_15_pMS2_287,301.mzXML method=CID eV=45 Parent=287 ret. time (min)=13.89 scan=3482
Num Peaks: 83
80.245 0.8;
87.474 0.7;
92.274 1;
96.424 1.2;
99.13 0.8;
99.592 0.9;
103.856 0.7;
104.653 0.8;
105.034 2.6;
105.286 0.8;
107.049 1.8;
107.176 0.8;
109.028 2.1;
110.774 0.8;
111.008 16.1;
115.951 0.8;
117.953 0.9;
120.468 0.8;
121.029 30.7;
121.065 0.9;
127.039 2.2;
127.319 0.8;
129.07 1.5;
133.029 26.1;
134.032 1.7;
135.044 1;
135.08 0.9;
137.023 10.3;
139.43 0.9;
140.998 1.6;
141.07 1;
144.699 0.8;
145.065 5.6;
147.044 11.2;
148.756 0.9;
153.018 55;
154.022 1.5;
157.065 6.6;
158.406 0.9;
161.024 2;
161.06 1.4;
165.019 100;
166.022 3;
168.413 0.8;
169.065 3.1;
171.044 4.2;
173.294 0.8;
175.04 3.3;
176.597 0.9;
177.055 0.8;
183.029 8.1;
185.06 10.4;
189.055 6.8;
189.573 0.9;
190.974 0.9;
192.698 0.8;
197.06 16;
199.039 5.3;
200.012 0.9;
200.845 0.8;
203.034 4.1;
203.071 5.1;
213.055 74.3;
214.058 4.5;
222.528 1;
225.055 2.2;
231.066 43.4;
232.069 2.9;
234.991 1;
241.05 97.9;
242.053 7.4;
243.066 5.2;
245.045 3.3;
247.607 0.8;
258.053 43.6;
259.061 23.7;
260.064 2.4;
269.045 29.7;
270.048 3.9;
273.601 0.9;
278.63 0.9;
287.045 1.9;
287.059 1.7;
Name: unknown from kaempferol standard
Synon: $:01M
Synon: $:06QTOF
Synon: $:00ms2:HCD
Synon: $:03[M+H]+
Synon: $:04301
Synon: $:0575 eV
Synon: $:09LC
Synon: $:10ESI
Synon: $:11p
Formula: C16H12O6
MW: 300.06339
Comment: file=WEB346_S_15_pMS2_287,301.mzXML method=HCD eV=75 Parent=301 ret. time (min)=15.22 scan=3820
Num Peaks: 116
51.646 0.8;
57.191 0.9;
59.716 1;
60.671 0.8;
60.696 0.7;
64.088 0.8;
64.268 0.9;
67.483 0.8;
68.7 0.8;
70.234 1;
73.796 0.8;
79.016 0.8;
79.054 3.4;
80.026 1.7;
80.323 0.8;
80.522 1;
81.041 0.8;
81.493 1;
82.463 1;
83.086 1.8;
91.054 2.5;
94.041 1.8;
94.065 7.3;
95.049 8.1;
95.069 1;
95.086 1.1;
96.021 2.9;
96.796 0.8;
104.87 0.8;
105.034 3.4;
105.045 3.2;
106.041 6;
106.227 1.1;
107.049 70.4;
108.021 1.5;
108.053 3.2;
108.057 1.1;
108.182 0.9;
109.576 0.9;
111.044 2.9;
115.865 1;
118.041 14.4;
119.045 1;
119.049 1;
119.06 20.5;
120.064 1.3;
121.029 34.6;
121.04 5;
122.032 1.1;
123.008 8.9;
123.044 3.7;
124.016 26.4;
125.023 0.9;
128.062 3.2;
131.049 1.1;
134.036 11.7;
135.008 1.1;
135.044 2.2;
136.087 11.9;
138.863 1;
139.055 1.1;
141.019 0.9;
141.055 1.2;
144.057 1.7;
145.065 1;
147.044 2.6;
151.039 4.4;
155.049 1.5;
156.057 4.4;
157.065 2.9;
159.629 1.1;
167.034 29.2;
168.057 1.9;
169.013 1;
169.065 1.1;
171.044 2.5;
172.554 0.9;
173.231 0.8;
174.052 0.9;
174.068 1.7;
175.603 0.8;
175.82 0.9;
177.951 1;
179.034 1.8;
184.052 11.1;
185.056 2;
194.873 1.1;
195.044 2.5;
200.774 1;
201.055 1.8;
202.063 1.9;
212.039 0.9;
212.047 25;
213.05 1;
213.055 1.4;
214.083 1.5;
218.166 1.4;
223.602 0.9;
227.071 3.3;
229.051 4.5;
240.043 3.8;
241.05 3.5;
243.065 1.1;
245.081 1.6;
257.045 16.1;
258.053 100;
259.056 11.3;
260.087 0.9;
272.069 1.6;
276.215 0.9;
277.261 1.1;
286.048 16.9;
287.052 2.8;
292.498 0.9;
301.071 13;
302.075 1.7;
Name: quercetin
Synon: $:01M
Synon: $:06QTOF
Synon: $:00ms2:CID
Synon: $:03[M+H]+
Synon: $:04303
Synon: $:0545 eV
Synon: $:09LC
Synon: $:10ESI
Synon: $:11p
Formula: C15H10O7
MW: 302.0427
Comment: file=WEB346_S_16_pMS2.mzXML method=CID eV=45 Parent=303 ret. time (min)=13.24 scan=3182
Num Peaks: 108
80.345 0.2;
81.479 0.3;
84.677 0.2;
86.72 0.2;
87.908 0.3;
93.034 0.3;
93.529 0.3;
97.164 0.2;
108.135 0.4;
109.028 1.9;
111.008 7.2;
111.044 0.5;
114.926 0.3;
117.136 0.3;
119.453 0.3;
119.542 0.3;
121.029 8.2;
121.321 0.3;
123.044 0.5;
127.039 0.8;
128.994 0.3;
135.044 0.3;
137.023 22.5;
137.06 0.8;
137.583 0.3;
140.999 0.3;
143.617 0.3;
143.784 0.2;
145.995 0.3;
147.591 0.3;
149.023 9.6;
152.908 0.3;
153.018 20.7;
153.467 0.3;
154.022 0.5;
157.065 0.3;
157.928 0.3;
159.045 0.6;
160.927 0.3;
161.06 3.8;
162.078 0.3;
163.039 5.9;
164.088 0.3;
165.018 57.6;
165.528 0.3;
166.027 3.8;
170.524 0.3;
173.024 0.7;
173.06 0.9;
175.726 0.3;
177.019 1.1;
177.623 0.3;
179.887 0.3;
183.029 2.4;
183.045 0.5;
185.06 0.6;
186.714 0.3;
187.039 2.1;
189.018 0.3;
189.055 0.4;
191.034 1.6;
191.071 0.6;
191.151 0.3;
193.05 1.3;
195.029 6.6;
200.464 0.5;
201.055 7.5;
205.05 3.3;
207.03 0.7;
211.363 0.3;
213.055 4.5;
215.034 2.2;
217.05 0.3;
219.029 4.2;
219.066 3.8;
220.835 0.3;
223.04 0.6;
229.05 71.2;
230.053 1.7;
230.177 0.3;
231.029 0.3;
233.044 1.2;
239.034 1.7;
241.05 1.2;
241.954 0.3;
243.03 0.3;
246.049 0.7;
247.06 39;
248.064 0.8;
254.969 0.3;
257.045 100;
258.048 2.2;
261.04 0.6;
267.029 0.7;
273.04 0.8;
274.047 17.1;
275.056 14.9;
276.059 0.5;
276.646 0.3;
279.313 0.3;
284.027 0.3;
285.04 62.3;
286.043 1.7;
288.22 0.3;
296.045 0.3;
303.04 0.6;
308.43 0.3;
310.081 0.3;
Name: unknown from quercetin standard
Synon: $:01M
Synon: $:06QTOF
Synon: $:00ms2:CID
Synon: $:03[M+H]+
Synon: $:04317
Synon: $:0545 eV
Synon: $:09LC
Synon: $:10ESI
Synon: $:11p
NA
Comment: file=WEB346_S_16_pMS2.mzXML method=CID eV=45 Parent=317 ret. time (min)=13.96 scan=3357
Num Peaks: 62
111.008 0.5;
111.044 0.2;
123.044 0.2;
124.052 0.1;
135.044 0.2;
136.016 0.1;
137.023 0.5;
139.039 9.2;
140.043 0.2;
151.039 2.7;
151.076 0.4;
153.019 3.6;
163.039 2;
165.019 6.6;
166.022 0.1;
175.076 0.4;
177.055 1.6;
183.03 0.2;
191.034 0.2;
201.055 1;
207.065 0.1;
211.039 0.2;
215.035 0.2;
215.071 0.2;
219.066 0.6;
223.04 0.1;
225.055 0.2;
227.07 0.3;
228.042 0.1;
229.05 2.5;
233.045 0.8;
233.081 0.2;
239.034 0.1;
243.066 2.2;
245.044 0.1;
246.053 0.1;
253.181 0.1;
256.037 0.2;
257.045 8.1;
258.049 0.3;
260.032 0.2;
261.076 8.7;
262.08 0.3;
271.061 4.6;
272.065 0.3;
273.04 0.9;
274.048 4.5;
275.054 0.2;
284.032 0.6;
285.04 38.8;
286.044 1.5;
287.056 0.5;
288.062 3.3;
289.06 0.3;
289.074 0.7;
299.056 3.3;
299.274 0.1;
300.027 0.2;
300.059 0.2;
301.035 0.7;
302.043 100;
303.046 4.2;
Name: unknown from quercetin standard
Synon: $:01M
Synon: $:06QTOF
Synon: $:00ms2:HCD
Synon: $:03[M+H]+
Synon: $:04317
Synon: $:0575 eV
Synon: $:09LC
Synon: $:10ESI
Synon: $:11p
NA
Comment: file=WEB346_S_16_pMS2.mzXML method=HCD eV=75 Parent=317 ret. time (min)=13.96 scan=3358
Num Peaks: 211
50.403 0.1;
50.438 0.2;
50.974 0.2;
53.529 0.1;
54.427 0.1;
54.946 0.1;
56.055 0.1;
58.995 0.1;
59.69 0.1;
60.32 0.1;
60.399 0.1;
61.129 0.1;
65.067 0.1;
68.052 0.2;
68.997 1;
69.246 0.1;
69.594 0.2;
79.054 0.2;
80.209 0.2;
81.034 0.6;
81.663 0.1;
82.041 0.3;
85.029 0.2;
87.205 0.2;
89.25 0.2;
89.253 0.1;
91.054 0.6;
91.112 0.1;
92.026 23;
93.034 10.1;
94.041 2.2;
95.013 0.7;
95.049 0.8;
96.021 0.4;
97.029 0.3;
98.764 0.1;
101.683 0.1;
103.054 0.6;
104.497 0.1;
105.034 1.1;
105.045 0.9;
105.07 0.7;
107.049 0.3;
108.021 1.3;
109.029 1.7;
110.036 0.5;
111.008 0.8;
111.044 0.3;
112.868 0.2;
115.054 1.7;
116.058 0.2;
116.062 0.6;
117.07 1.2;
118.774 0.2;
119.013 0.4;
119.05 0.2;
120.021 1.4;
121.029 8.9;
121.04 0.4;
121.065 0.4;
122.036 5.9;
123.044 0.5;
124.016 3.3;
124.376 0.2;
126.031 9.4;
127.039 0.3;
127.054 0.5;
128.062 0.6;
129.07 0.3;
130.041 0.3;
131.049 2;
131.721 0.2;
132.053 0.2;
133.029 1.3;
133.065 0.7;
134.037 0.5;
134.553 0.1;
135.044 0.4;
136.016 1.8;
137.024 3.3;
137.06 0.3;
138.031 0.5;
139.039 1.3;
139.055 0.2;
143.05 0.3;
144.057 1.7;
145.029 0.6;
145.065 1.8;
147.045 1.8;
148.052 0.4;
149.024 1.1;
149.06 0.2;
150.032 1.5;
150.142 0.2;
151.039 2.5;
151.051 1;
152.011 1.8;
153.019 100;
154.022 2.1;
154.027 0.2;
155.049 4.1;
155.061 1.3;
155.173 0.2;
156.058 0.2;
157.065 0.4;
158.037 0.3;
159.045 0.6;
159.797 0.2;
160.052 0.4;
161.023 0.5;
161.06 2.3;
162.032 0.4;
162.068 0.3;
163.039 1.1;
165.019 1.2;
166.026 2.2;
170.021 2.3;
171.045 1.6;
171.056 0.2;
172.052 2.1;
172.139 0.2;
173.06 3.9;
174.031 0.3;
175.04 1.3;
176.047 1.4;
177.019 1;
177.055 0.6;
178.027 0.9;
178.239 0.2;
178.596 0.2;
179.034 4.8;
180.039 0.2;
181.014 0.4;
183.029 0.3;
183.045 2.9;
184.053 1;
185.06 0.3;
186.032 0.3;
187.04 2.8;
188.048 0.2;
189.019 0.4;
189.055 3.7;
190.027 0.6;
190.063 1.9;
191.034 1.4;
192.042 2.4;
193.014 1;
194.293 0.2;
199.04 1.4;
200.039 0.2;
200.047 7.4;
201.055 8.3;
202.026 0.5;
202.058 0.3;
203.034 16.9;
204.043 2.2;
205.05 0.5;
207.03 0.4;
207.304 0.1;
211.04 1.8;
211.051 0.2;
212.048 0.3;
215.035 0.5;
216.042 0.6;
217.05 40.9;
218.022 0.6;
218.059 4.6;
219.029 7.2;
220.036 0.4;
221.045 0.3;
222.481 0.1;
227.035 1.9;
228.042 24.5;
229.05 34.4;
230.053 1.3;
231.029 8.2;
232.038 1.4;
233.044 0.5;
239.034 1.2;
240.043 0.2;
243.03 0.4;
243.066 0.2;
244.036 0.4;
245.045 40.9;
246.053 10.3;
247.024 0.2;
247.056 0.3;
255.029 0.6;
256.037 2.2;
257.045 7.9;
258.052 0.7;
259.024 2.2;
260.032 2.3;
261.04 0.3;
261.434 0.1;
267.029 0.2;
273.04 14.2;
274.048 7.1;
275.052 0.3;
284.032 2.1;
285.04 11;
286.044 0.7;
287.019 0.9;
288.064 0.3;
299.561 0.1;
300.028 0.5;
301.001 0.2;
301.035 3.2;
302.043 6.1;
303.046 0.3;
317.067 0.9;
Name: myricetin
Synon: $:01M
Synon: $:06QTOF
Synon: $:00ms2:CID
Synon: $:03[M+H]+
Synon: $:04319
Synon: $:0545 eV
Synon: $:09LC
Synon: $:10ESI
Synon: $:11p
Formula: C15H10O8
MW: 318.0376
Comment: file=WEB346_S_17_pMS2.mzXML method=CID eV=45 Parent=319 ret. time (min)=12.49 scan=2930
Num Peaks: 112
93.052 0.1;
93.711 0.1;
96.555 0.1;
96.98 0.1;
98.401 0.1;
98.486 0.1;
99.493 0.1;
100.862 0.1;
101.977 0.1;
104.601 0.1;
107.049 0.2;
109.028 3.3;
111.008 3.7;
111.044 0.1;
113.76 0.1;
116.909 0.1;
125.024 0.3;
126.339 0.1;
126.844 0.1;
127.039 3.9;
127.995 0.1;
128.993 0.1;
130.793 0.1;
134.854 0.1;
135.044 0.2;
135.618 0.1;
137.023 5.8;
137.425 0.1;
138.027 0.1;
139.039 0.2;
143.853 0.1;
145.407 0.1;
145.458 0.1;
147.044 0.2;
151.053 0.1;
153.018 34.1;
153.055 3.4;
154.022 0.5;
156.838 0.1;
159.044 0.1;
159.691 0.1;
163.039 0.3;
165.019 42.3;
166.022 0.4;
166.027 1.9;
167.034 0.4;
175.003 0.3;
175.88 0.1;
177.055 1.6;
178.635 0.1;
179.034 6.6;
183.029 0.7;
184.794 0.2;
189.018 0.6;
189.055 0.5;
191.034 0.5;
193.014 2.8;
193.05 0.2;
194.021 0.3;
195.029 7.1;
199.04 0.3;
199.531 0.2;
201.055 0.6;
203.034 0.6;
205.013 0.1;
205.05 0.2;
207.029 1.9;
209.045 1.2;
210.491 0.2;
217.05 4.6;
218.053 0.1;
221.008 0.3;
221.045 1.7;
227.035 1.3;
229.05 2;
231.029 2;
233.045 0.5;
235.024 4;
235.06 1.1;
236.027 0.1;
239.035 0.5;
240.189 0.1;
241.387 0.1;
244.037 0.3;
245.045 30.6;
246.048 0.9;
247.024 0.2;
247.655 0.1;
249.04 1;
255.029 6.2;
256.033 0.1;
256.173 0.1;
257.045 0.7;
259.024 0.6;
261.04 0.4;
262.043 1.2;
263.055 26.3;
264.059 1;
272.031 0.4;
272.134 0.1;
273.04 100;
274.043 3.3;
277.035 1.1;
283.024 4.1;
287.511 0.1;
289.035 0.3;
290.043 19.4;
291.051 6.5;
292.053 0.3;
300.026 0.1;
301.035 40.2;
302.038 1.5;